p tdp 104 103
4 51
84 9
67 13
58 90
54 43
96 79
6 41
3 65
90 86
65 83
82 55
87 95
46 38
89 80
34 8
42 15
49 74
21 56
44 53
30 26
92 1
47 73
40 91
57 9
60 39
8 88
25 51
85 32
94 17
7 62
35 33
73 46
12 40
63 45
59 2
27 83
76 62
47 34
72 75
81 5
20 32
55 57
18 69
93 77
10 102
44 7
72 24
97 98
29 6
30 35
49 93
14 48
100 28
15 22
3 25
78 3
71 11
103 99
100 97
5 17
19 12
69 77
56 71
43 46
60 13
68 6
42 1
16 49
104 44
65 79
66 68
10 6
84 102
36 95
52 70
80 22
45 66
99 79
72 31
31 30
98 37
58 23
33 64
61 102
72 32
43 78
37 40
66 97
50 67
14 104
95 50
71 18
103 13
17 101
14 52
35 94
86 15
33 73
59 21
98 58
67 41
46 70
22 18
